100011000101101011010111001100110110110010100010101001001110001101100010001011110101110010011111110111100001111000011001010111011100101110111000111100011110100000100101101100001000100001011101110100000011001100000101001010001001111110101001100010001100010100101001000000100011101011110000101001100111001001100100011010011001001110111000111100000000011001010100001000100010101100100001